NAME: instance_3091
TYPE: TSP
DIMENSION: 20
EDGE_WEIGHT_TYPE: EUC_2D
NODE_COORD_SECTION
0 91.17 77.81
1 34.28 56.16
2 4.98 59.21
3 63.13 37.01
4 81.80 8.12
5 39.85 6.34
6 52.11 57.42
7 53.99 17.95
8 6.71 53.93
9 24.14 5.53
10 75.50 49.81
11 77.81 48.11
12 25.97 93.71
13 73.03 74.10
14 16.38 59.33
15 57.10 17.58
16 18.61 39.70
17 88.76 37.39
18 2.24 19.38
19 82.52 39.08
EOF
